p edge 1001
e 0 3
e 0 88
e 0 419
e 0 699
e 0 899
e 0 900
e 0 901
e 0 980
e 1 8
e 1 217
e 1 218
e 1 393
e 1 426
e 1 437
e 1 684
e 1 685
e 1 707
e 1 789
e 2 7
e 2 9
e 2 11
e 2 430
e 2 435
e 2 438
e 2 567
e 3 695
e 3 896
e 3 900
e 3 901
e 3 904
e 4 896
e 4 901
e 4 904
e 5 6
e 5 35
e 5 202
e 5 536
e 5 540
e 5 897
e 5 903
e 6 35
e 6 533
e 6 696
e 6 697
e 6 702
e 6 882
e 6 902
e 6 903
e 6 904
e 7 9
e 7 10
e 7 11
e 7 12
e 7 125
e 7 957
e 8 435
e 8 684
e 8 685
e 9 126
e 9 216
e 9 435
e 9 473
e 9 474
e 9 685
e 9 686
e 10 11
e 10 12
e 11 12
e 11 567
e 12 348
e 12 428
e 12 438
e 12 567
e 12 957
e 13 16
e 13 131
e 13 521
e 13 566
e 13 574
e 13 647
e 14 19
e 14 25
e 14 144
e 14 520
e 14 565
e 14 620
e 15 18
e 15 564
e 15 630
e 15 635
e 16 192
e 16 574
e 16 927
e 16 932
e 16 941
e 17 660
e 17 861
e 17 863
e 18 19
e 18 518
e 18 520
e 18 564
e 18 638
e 18 660
e 19 520
e 19 564
e 19 565
e 20 21
e 20 626
e 20 628
e 20 687
e 20 785
e 20 856
e 21 298
e 21 687
e 21 856
e 22 203
e 22 503
e 22 618
e 22 628
e 22 687
e 22 883
e 23 197
e 23 199
e 23 200
e 23 201
e 23 240
e 23 253
e 23 513
e 23 654
e 24 228
e 24 239
e 24 519
e 24 526
e 24 595
e 24 622
e 24 624
e 24 636
e 24 659
e 25 27
e 25 140
e 25 142
e 25 144
e 25 146
e 25 520
e 25 627
e 25 636
e 26 140
e 26 195
e 26 200
e 26 201
e 26 618
e 26 657
e 27 140
e 27 142
e 27 637
e 28 29
e 28 30
e 28 31
e 28 38
e 28 40
e 29 30
e 29 40
e 30 38
e 30 40
e 30 168
e 31 38
e 31 40
e 31 167
e 31 323
e 31 461
e 31 464
e 32 532
e 32 538
e 32 539
e 32 541
e 32 542
e 32 543
e 32 544
e 32 546
e 32 971
e 32 972
e 33 36
e 33 542
e 33 543
e 33 544
e 33 545
e 34 35
e 34 532
e 34 539
e 34 542
e 35 36
e 35 533
e 35 534
e 35 536
e 35 539
e 35 542
e 35 546
e 36 542
e 36 545
e 36 546
e 37 43
e 37 171
e 37 178
e 37 186
e 37 901
e 37 980
e 37 988
e 38 168
e 38 464
e 38 528
e 38 974
e 38 996
e 39 43
e 39 173
e 39 179
e 39 180
e 39 181
e 39 528
e 40 46
e 40 167
e 40 168
e 40 169
e 41 43
e 41 44
e 41 180
e 41 319
e 41 320
e 41 324
e 42 45
e 42 167
e 42 321
e 42 322
e 42 323
e 42 461
e 42 997
e 43 171
e 43 173
e 43 174
e 43 180
e 43 324
e 43 988
e 44 179
e 44 182
e 44 320
e 44 324
e 45 166
e 45 170
e 45 171
e 45 178
e 45 321
e 45 323
e 46 167
e 46 169
e 46 322
e 46 325
e 46 527
e 47 48
e 47 52
e 48 52
e 48 336
e 49 101
e 49 334
e 49 335
e 49 336
e 50 146
e 50 549
e 50 622
e 50 659
e 51 145
e 51 305
e 51 439
e 51 466
e 51 596
e 52 53
e 52 101
e 52 326
e 52 334
e 52 336
e 52 341
e 52 343
e 52 502
e 52 991
e 53 326
e 53 335
e 53 336
e 53 364
e 53 432
e 54 102
e 54 123
e 54 648
e 54 649
e 55 94
e 55 98
e 55 107
e 55 341
e 55 648
e 56 96
e 56 111
e 56 115
e 56 376
e 56 377
e 56 378
e 56 380
e 56 649
e 57 326
e 57 432
e 57 517
e 57 518
e 57 639
e 57 661
e 57 662
e 57 910
e 58 59
e 58 60
e 58 61
e 58 293
e 58 294
e 58 992
e 59 61
e 59 220
e 59 293
e 59 295
e 60 62
e 60 293
e 60 294
e 60 992
e 61 295
e 61 992
e 62 293
e 62 469
e 62 470
e 62 478
e 62 992
e 62 993
e 63 64
e 63 65
e 63 66
e 63 67
e 63 72
e 63 530
e 64 67
e 64 71
e 64 530
e 64 607
e 64 614
e 64 617
e 65 66
e 65 68
e 65 72
e 65 611
e 66 67
e 66 70
e 66 609
e 66 610
e 66 611
e 67 607
e 67 609
e 67 616
e 68 69
e 68 72
e 68 172
e 68 184
e 68 608
e 68 611
e 68 612
e 68 613
e 68 615
e 69 70
e 69 613
e 69 615
e 70 610
e 70 611
e 70 613
e 70 615
e 71 325
e 71 607
e 71 612
e 71 617
e 72 184
e 72 530
e 72 531
e 72 901
e 73 74
e 73 75
e 73 148
e 73 633
e 74 592
e 74 633
e 74 916
e 75 592
e 75 678
e 75 682
e 76 77
e 76 299
e 76 300
e 76 589
e 76 754
e 76 915
e 77 589
e 77 670
e 77 681
e 77 915
e 77 917
e 78 574
e 78 575
e 78 927
e 78 933
e 79 569
e 79 580
e 79 581
e 79 632
e 79 755
e 79 911
e 79 929
e 80 571
e 80 930
e 80 937
e 80 943
e 81 584
e 81 653
e 81 756
e 81 865
e 82 83
e 82 219
e 82 587
e 82 673
e 82 675
e 82 757
e 83 84
e 83 587
e 83 589
e 83 757
e 83 917
e 84 575
e 84 585
e 84 589
e 84 933
e 85 388
e 85 414
e 85 447
e 85 450
e 86 90
e 86 114
e 86 423
e 86 441
e 86 455
e 87 227
e 87 236
e 87 568
e 87 570
e 87 588
e 87 679
e 88 392
e 88 417
e 88 419
e 88 445
e 88 446
e 88 460
e 88 898
e 88 899
e 88 903
e 89 415
e 89 416
e 89 417
e 89 445
e 89 455
e 90 423
e 90 450
e 91 92
e 91 106
e 91 376
e 91 378
e 92 106
e 92 119
e 92 121
e 92 378
e 93 103
e 93 115
e 93 376
e 93 380
e 94 104
e 94 106
e 94 109
e 94 119
e 94 648
e 95 97
e 95 99
e 95 100
e 95 650
e 96 102
e 96 118
e 96 377
e 96 649
e 97 98
e 97 100
e 97 101
e 97 105
e 97 650
e 98 99
e 98 100
e 98 107
e 98 341
e 98 379
e 99 100
e 99 379
e 99 650
e 101 105
e 101 334
e 101 341
e 101 379
e 101 650
e 102 110
e 102 118
e 102 123
e 102 649
e 103 108
e 103 115
e 103 376
e 103 382
e 103 419
e 103 980
e 104 116
e 104 119
e 104 381
e 104 648
e 105 107
e 105 124
e 105 335
e 105 376
e 106 109
e 106 119
e 106 376
e 107 109
e 107 376
e 108 115
e 109 376
e 110 117
e 110 118
e 110 120
e 110 123
e 110 383
e 111 377
e 111 378
e 112 113
e 112 209
e 112 214
e 112 965
e 113 209
e 113 415
e 113 455
e 113 958
e 114 441
e 114 455
e 114 958
e 114 965
e 115 380
e 115 382
e 115 649
e 116 117
e 116 119
e 116 122
e 116 381
e 117 119
e 117 120
e 117 121
e 117 122
e 117 383
e 118 120
e 118 377
e 120 121
e 120 377
e 120 378
e 121 378
e 122 381
e 122 383
e 123 381
e 123 383
e 123 648
e 124 335
e 124 364
e 124 376
e 125 126
e 125 375
e 125 384
e 125 554
e 125 957
e 126 349
e 126 359
e 126 360
e 126 375
e 126 384
e 126 427
e 126 434
e 126 473
e 126 554
e 126 563
e 127 128
e 127 354
e 127 557
e 127 951
e 127 952
e 128 354
e 128 426
e 128 557
e 128 562
e 129 130
e 129 131
e 129 401
e 129 506
e 129 521
e 130 131
e 130 360
e 130 401
e 130 550
e 130 551
e 131 360
e 131 434
e 131 521
e 131 647
e 132 133
e 132 134
e 132 395
e 132 658
e 132 791
e 133 134
e 133 818
e 134 658
e 134 789
e 134 790
e 134 818
e 135 136
e 135 307
e 135 827
e 135 830
e 136 827
e 136 828
e 137 138
e 137 286
e 137 326
e 137 734
e 137 783
e 137 910
e 138 286
e 138 288
e 138 330
e 138 734
e 139 216
e 139 218
e 139 686
e 140 627
e 140 637
e 140 657
e 141 142
e 141 143
e 141 201
e 141 637
e 141 654
e 142 143
e 142 146
e 142 637
e 143 146
e 143 549
e 143 654
e 144 620
e 144 623
e 144 627
e 144 630
e 145 305
e 145 439
e 145 440
e 145 483
e 145 522
e 145 866
e 145 893
e 145 991
e 146 549
e 146 622
e 146 636
e 147 666
e 147 755
e 147 935
e 147 940
e 147 942
e 148 221
e 148 676
e 148 678
e 148 860
e 149 220
e 149 280
e 149 929
e 149 940
e 150 570
e 150 577
e 150 578
e 150 679
e 150 854
e 150 864
e 151 297
e 151 302
e 151 651
e 151 652
e 151 865
e 152 164
e 152 165
e 152 243
e 152 491
e 152 493
e 152 494
e 152 495
e 152 501
e 152 720
e 152 783
e 153 154
e 153 155
e 153 730
e 153 731
e 153 949
e 154 156
e 154 264
e 154 826
e 155 156
e 155 729
e 155 730
e 155 831
e 156 259
e 156 260
e 156 831
e 157 159
e 157 504
e 157 514
e 157 946
e 158 159
e 158 160
e 158 297
e 158 514
e 159 161
e 159 492
e 159 504
e 160 161
e 160 162
e 160 163
e 160 297
e 161 163
e 161 492
e 161 782
e 162 163
e 162 297
e 162 653
e 162 719
e 163 719
e 163 782
e 163 802
e 164 165
e 164 244
e 164 501
e 164 759
e 164 776
e 164 778
e 165 243
e 166 171
e 166 177
e 166 178
e 167 183
e 167 322
e 167 997
e 168 169
e 168 527
e 168 528
e 169 527
e 170 171
e 171 174
e 171 178
e 171 323
e 171 973
e 171 998
e 172 184
e 172 321
e 172 322
e 172 325
e 173 174
e 173 175
e 173 176
e 173 528
e 173 974
e 174 175
e 174 998
e 175 176
e 175 974
e 175 996
e 175 998
e 177 178
e 178 186
e 178 321
e 179 180
e 179 181
e 179 182
e 179 319
e 179 320
e 180 319
e 181 182
e 181 324
e 181 527
e 181 528
e 182 324
e 183 461
e 183 997
e 184 185
e 184 321
e 184 901
e 185 186
e 185 321
e 185 901
e 186 321
e 186 901
e 187 190
e 187 469
e 187 473
e 187 476
e 187 643
e 187 644
e 187 646
e 188 189
e 188 471
e 188 472
e 188 645
e 189 472
e 189 645
e 190 434
e 190 473
e 190 476
e 190 477
e 191 326
e 191 347
e 192 566
e 192 629
e 192 941
e 193 275
e 193 291
e 193 505
e 193 519
e 193 636
e 193 640
e 193 795
e 194 195
e 194 618
e 194 656
e 194 883
e 195 618
e 195 656
e 195 657
e 196 503
e 196 621
e 196 623
e 196 625
e 196 635
e 197 198
e 197 199
e 197 240
e 197 512
e 198 199
e 198 512
e 198 523
e 198 851
e 199 524
e 199 654
e 200 201
e 200 513
e 200 618
e 200 619
e 201 637
e 201 654
e 202 897
e 202 920
e 202 971
e 203 276
e 203 503
e 203 687
e 203 933
e 203 995
e 203 1000
e 204 205
e 204 391
e 204 443
e 204 954
e 205 443
e 205 451
e 205 954
e 206 207
e 206 409
e 206 735
e 206 921
e 207 735
e 207 819
e 207 921
e 207 923
e 208 211
e 208 410
e 208 421
e 208 454
e 209 213
e 209 386
e 209 820
e 210 215
e 210 386
e 210 459
e 210 525
e 210 832
e 210 964
e 211 410
e 211 418
e 211 453
e 212 214
e 212 421
e 212 454
e 213 214
e 213 454
e 213 820
e 214 421
e 215 386
e 215 525
e 216 218
e 216 685
e 216 686
e 217 218
e 217 307
e 217 310
e 217 470
e 217 686
e 217 789
e 217 993
e 218 685
e 218 686
e 219 224
e 219 469
e 219 576
e 219 587
e 219 643
e 219 665
e 219 675
e 219 677
e 219 758
e 219 934
e 219 935
e 220 224
e 220 280
e 220 295
e 220 936
e 220 940
e 221 586
e 221 633
e 221 668
e 221 860
e 222 318
e 222 570
e 222 584
e 222 756
e 222 854
e 223 571
e 223 579
e 223 632
e 223 634
e 223 928
e 223 937
e 224 293
e 224 469
e 224 664
e 224 665
e 224 936
e 225 230
e 225 245
e 225 258
e 225 504
e 225 513
e 226 275
e 226 292
e 226 775
e 226 781
e 226 795
e 227 236
e 227 333
e 227 498
e 227 568
e 227 577
e 227 578
e 227 582
e 227 719
e 227 779
e 227 813
e 227 814
e 227 839
e 228 239
e 228 487
e 228 519
e 228 803
e 229 233
e 229 234
e 229 843
e 229 844
e 230 248
e 230 258
e 230 492
e 230 504
e 230 801
e 231 232
e 231 274
e 231 793
e 231 813
e 231 839
e 232 263
e 232 268
e 232 274
e 232 813
e 233 234
e 233 844
e 233 845
e 234 235
e 234 242
e 234 489
e 235 242
e 235 489
e 235 804
e 235 853
e 236 679
e 237 255
e 237 267
e 237 787
e 237 794
e 238 257
e 238 268
e 238 269
e 238 813
e 238 826
e 239 266
e 239 526
e 239 846
e 239 852
e 240 245
e 240 250
e 240 253
e 240 512
e 241 251
e 241 498
e 241 794
e 241 816
e 242 266
e 242 487
e 242 845
e 242 853
e 243 244
e 243 493
e 244 493
e 244 509
e 244 515
e 244 776
e 244 799
e 245 250
e 245 253
e 245 258
e 245 765
e 245 766
e 246 248
e 246 271
e 246 272
e 246 273
e 246 766
e 247 257
e 247 264
e 247 272
e 247 766
e 247 826
e 248 258
e 248 766
e 248 801
e 248 802
e 249 265
e 249 808
e 249 809
e 249 837
e 250 765
e 250 784
e 251 255
e 251 794
e 251 815
e 251 816
e 252 254
e 252 494
e 252 507
e 252 509
e 252 510
e 253 513
e 254 507
e 254 508
e 254 511
e 255 786
e 255 794
e 255 815
e 256 263
e 256 274
e 256 793
e 256 814
e 256 839
e 256 840
e 257 269
e 257 272
e 257 826
e 259 260
e 259 261
e 259 264
e 260 261
e 260 780
e 260 811
e 261 262
e 261 264
e 261 766
e 261 780
e 262 766
e 262 767
e 262 768
e 262 780
e 263 268
e 263 270
e 263 274
e 263 840
e 263 848
e 264 766
e 265 807
e 265 808
e 265 809
e 265 810
e 266 487
e 266 845
e 266 846
e 267 497
e 267 787
e 267 794
e 268 269
e 269 270
e 269 272
e 270 271
e 270 272
e 271 272
e 271 273
e 271 848
e 272 766
e 273 802
e 273 848
e 274 793
e 275 291
e 275 781
e 275 795
e 276 298
e 276 299
e 276 300
e 276 687
e 276 926
e 276 933
e 277 282
e 277 337
e 277 338
e 278 283
e 278 284
e 278 285
e 279 281
e 279 283
e 279 285
e 279 779
e 280 281
e 280 284
e 280 337
e 280 929
e 280 962
e 281 284
e 281 285
e 281 779
e 281 929
e 282 284
e 282 337
e 283 284
e 283 285
e 284 285
e 284 337
e 286 287
e 286 288
e 287 288
e 287 289
e 288 289
e 290 310
e 290 316
e 290 827
e 290 830
e 291 515
e 291 519
e 291 781
e 291 803
e 291 948
e 292 775
e 292 776
e 292 778
e 292 781
e 293 294
e 293 469
e 295 296
e 295 962
e 295 969
e 295 970
e 295 992
e 296 992
e 297 652
e 297 653
e 297 865
e 298 299
e 298 462
e 298 651
e 298 687
e 298 856
e 299 300
e 299 331
e 299 754
e 300 585
e 300 589
e 300 926
e 301 583
e 301 669
e 301 857
e 301 858
e 301 930
e 301 943
e 302 303
e 302 678
e 302 682
e 302 683
e 302 865
e 303 584
e 303 680
e 303 865
e 304 333
e 304 855
e 304 911
e 304 929
e 305 866
e 305 867
e 305 875
e 305 878
e 305 879
e 305 880
e 306 309
e 306 310
e 306 315
e 306 422
e 306 818
e 306 827
e 306 918
e 307 310
e 307 828
e 307 829
e 307 830
e 307 993
e 308 312
e 308 313
e 308 314
e 308 317
e 309 315
e 309 827
e 310 311
e 310 314
e 310 315
e 310 316
e 310 789
e 310 818
e 310 830
e 311 314
e 311 315
e 312 313
e 312 317
e 312 827
e 313 314
e 313 316
e 313 827
e 314 315
e 314 316
e 314 317
e 315 317
e 315 827
e 316 827
e 317 827
e 318 584
e 318 594
e 318 676
e 318 680
e 318 854
e 318 860
e 319 320
e 321 322
e 322 325
e 323 464
e 323 973
e 324 325
e 324 527
e 325 527
e 325 612
e 325 617
e 326 347
e 326 432
e 326 733
e 326 734
e 326 910
e 326 991
e 327 328
e 327 329
e 327 733
e 328 329
e 328 726
e 328 733
e 328 734
e 329 733
e 329 734
e 330 726
e 330 734
e 331 651
e 331 683
e 331 754
e 331 915
e 332 573
e 332 671
e 332 911
e 333 582
e 333 631
e 333 779
e 333 855
e 333 929
e 334 336
e 335 336
e 335 364
e 337 338
e 337 962
e 338 962
e 339 340
e 339 522
e 339 884
e 339 888
e 339 894
e 340 347
e 340 522
e 341 342
e 341 344
e 341 345
e 341 346
e 341 379
e 341 502
e 341 648
e 342 343
e 342 346
e 342 439
e 342 596
e 342 648
e 342 649
e 342 991
e 343 344
e 343 345
e 343 346
e 343 502
e 343 991
e 344 345
e 344 502
e 345 346
e 347 522
e 347 991
e 348 350
e 348 428
e 348 438
e 348 944
e 348 950
e 349 427
e 349 428
e 349 558
e 349 560
e 350 438
e 350 555
e 350 556
e 350 760
e 350 950
e 351 355
e 351 430
e 351 436
e 351 557
e 351 951
e 351 953
e 352 425
e 352 427
e 352 561
e 352 753
e 353 425
e 353 431
e 353 436
e 353 556
e 353 753
e 353 763
e 354 426
e 354 435
e 354 952
e 355 430
e 355 436
e 355 438
e 355 760
e 356 360
e 356 401
e 356 550
e 357 424
e 357 712
e 358 373
e 358 424
e 358 426
e 358 437
e 358 552
e 358 553
e 358 712
e 359 360
e 359 361
e 359 425
e 359 427
e 359 429
e 359 553
e 359 763
e 360 401
e 360 429
e 360 434
e 360 551
e 361 402
e 361 424
e 361 429
e 361 433
e 361 553
e 362 363
e 362 366
e 362 372
e 362 707
e 362 718
e 363 366
e 363 372
e 363 374
e 363 641
e 363 642
e 364 367
e 364 370
e 364 373
e 364 376
e 364 388
e 364 432
e 364 447
e 364 708
e 364 710
e 364 716
e 364 717
e 365 368
e 365 708
e 365 714
e 366 641
e 366 718
e 367 370
e 367 708
e 367 716
e 367 717
e 368 708
e 368 709
e 368 713
e 368 714
e 369 374
e 369 642
e 369 706
e 369 707
e 369 711
e 369 715
e 370 371
e 370 372
e 370 410
e 370 447
e 370 708
e 370 713
e 371 372
e 371 389
e 371 398
e 371 410
e 371 791
e 372 374
e 372 393
e 372 394
e 372 398
e 372 399
e 372 707
e 372 713
e 372 714
e 372 821
e 373 437
e 373 707
e 373 708
e 373 710
e 373 712
e 373 714
e 374 394
e 374 642
e 374 707
e 375 384
e 375 554
e 376 380
e 376 388
e 376 419
e 379 650
e 381 383
e 381 648
e 382 649
e 382 980
e 384 385
e 384 428
e 384 957
e 385 428
e 385 957
e 386 387
e 386 415
e 386 456
e 386 459
e 386 525
e 387 405
e 387 415
e 387 459
e 388 414
e 388 417
e 388 419
e 388 447
e 389 391
e 389 403
e 389 410
e 389 448
e 389 791
e 389 913
e 389 968
e 390 391
e 390 406
e 390 409
e 390 413
e 391 403
e 391 409
e 391 413
e 391 443
e 391 817
e 391 954
e 391 968
e 392 408
e 392 460
e 392 903
e 392 967
e 393 394
e 393 707
e 393 789
e 393 821
e 394 707
e 395 398
e 395 399
e 395 658
e 395 791
e 396 397
e 396 788
e 396 789
e 396 790
e 396 822
e 396 823
e 397 790
e 397 823
e 398 399
e 398 791
e 399 400
e 399 658
e 399 821
e 399 824
e 400 658
e 400 824
e 400 825
e 401 429
e 401 506
e 401 550
e 402 433
e 403 413
e 403 422
e 403 448
e 403 791
e 404 420
e 404 458
e 404 832
e 404 847
e 404 921
e 404 923
e 405 415
e 405 416
e 405 420
e 405 459
e 405 966
e 406 408
e 406 409
e 406 413
e 407 411
e 407 452
e 407 456
e 407 457
e 407 922
e 408 409
e 408 413
e 408 416
e 408 422
e 408 445
e 408 903
e 408 967
e 409 416
e 409 735
e 409 921
e 409 954
e 410 418
e 410 447
e 410 913
e 411 452
e 411 922
e 411 924
e 412 452
e 412 817
e 412 913
e 412 924
e 412 968
e 413 422
e 414 417
e 414 423
e 414 450
e 414 455
e 415 416
e 415 455
e 416 420
e 416 445
e 417 419
e 417 445
e 417 455
e 418 453
e 418 912
e 418 913
e 418 922
e 418 924
e 419 980
e 420 847
e 420 921
e 420 966
e 421 442
e 421 447
e 421 965
e 422 449
e 422 818
e 422 897
e 422 903
e 422 918
e 423 450
e 423 455
e 424 432
e 424 433
e 424 553
e 424 712
e 425 427
e 425 753
e 425 763
e 426 435
e 426 437
e 426 552
e 426 562
e 427 560
e 427 561
e 428 944
e 428 957
e 429 433
e 429 506
e 430 435
e 430 438
e 430 953
e 430 955
e 431 436
e 431 552
e 431 553
e 431 562
e 431 763
e 432 433
e 432 661
e 432 710
e 432 712
e 433 661
e 434 473
e 434 477
e 434 647
e 435 685
e 435 952
e 435 955
e 436 556
e 436 557
e 436 562
e 436 760
e 437 707
e 438 567
e 438 760
e 439 440
e 439 596
e 439 991
e 441 442
e 441 447
e 441 450
e 442 447
e 442 965
e 443 451
e 443 817
e 444 599
e 444 601
e 444 961
e 444 969
e 445 446
e 445 967
e 446 460
e 446 967
e 447 450
e 448 791
e 449 897
e 449 914
e 449 918
e 449 919
e 449 920
e 449 925
e 451 452
e 451 457
e 451 735
e 451 817
e 452 457
e 452 817
e 453 454
e 453 820
e 453 912
e 454 820
e 455 958
e 456 457
e 456 525
e 456 820
e 456 922
e 457 525
e 457 735
e 457 819
e 457 959
e 458 819
e 458 832
e 458 964
e 459 832
e 459 966
e 461 997
e 462 514
e 462 651
e 462 652
e 463 529
e 463 530
e 463 531
e 463 688
e 463 689
e 463 690
e 463 691
e 463 971
e 464 973
e 464 996
e 464 999
e 465 466
e 465 975
e 466 596
e 466 602
e 466 649
e 466 975
e 466 980
e 467 982
e 467 984
e 467 986
e 467 987
e 468 976
e 468 977
e 468 989
e 469 478
e 469 643
e 469 645
e 469 646
e 470 478
e 470 686
e 470 993
e 471 472
e 471 475
e 471 645
e 471 646
e 472 475
e 472 645
e 473 474
e 473 646
e 474 478
e 474 646
e 474 686
e 475 645
e 475 646
e 476 477
e 476 644
e 476 647
e 477 647
e 478 645
e 478 646
e 478 686
e 479 482
e 479 483
e 479 485
e 479 893
e 480 481
e 480 484
e 480 485
e 480 486
e 481 482
e 481 483
e 481 484
e 481 485
e 482 483
e 482 485
e 483 484
e 483 866
e 483 893
e 484 486
e 484 866
e 484 868
e 484 871
e 484 872
e 484 873
e 484 874
e 485 486
e 485 893
e 486 873
e 486 890
e 486 893
e 487 510
e 487 511
e 487 853
e 488 489
e 488 490
e 488 495
e 488 507
e 488 508
e 488 804
e 489 490
e 489 804
e 489 843
e 490 491
e 490 495
e 490 842
e 491 496
e 491 499
e 491 720
e 492 504
e 492 782
e 492 801
e 493 494
e 493 509
e 494 495
e 494 507
e 494 509
e 495 507
e 496 499
e 496 720
e 497 771
e 497 774
e 497 794
e 498 779
e 498 786
e 498 794
e 498 812
e 498 813
e 498 815
e 498 816
e 499 720
e 499 724
e 499 725
e 499 841
e 499 842
e 500 744
e 500 798
e 500 844
e 500 845
e 500 846
e 501 759
e 501 783
e 501 795
e 503 521
e 503 566
e 503 621
e 503 629
e 503 635
e 503 660
e 503 862
e 503 883
e 503 938
e 503 941
e 503 995
e 504 513
e 504 785
e 504 946
e 505 518
e 505 520
e 505 636
e 505 639
e 505 640
e 505 662
e 505 906
e 506 521
e 506 638
e 506 660
e 506 661
e 506 863
e 506 905
e 506 908
e 508 804
e 508 853
e 509 510
e 509 799
e 510 511
e 510 799
e 510 803
e 510 945
e 510 947
e 511 853
e 512 727
e 512 784
e 512 850
e 512 851
e 513 619
e 513 785
e 514 652
e 514 856
e 514 946
e 515 776
e 515 781
e 515 799
e 515 947
e 515 948
e 516 523
e 516 524
e 516 526
e 516 549
e 516 595
e 516 852
e 517 518
e 517 638
e 517 661
e 517 908
e 518 520
e 518 638
e 518 662
e 519 636
e 519 803
e 520 636
e 521 566
e 521 861
e 521 862
e 521 863
e 522 884
e 522 891
e 522 893
e 522 991
e 523 524
e 523 849
e 523 851
e 524 549
e 524 654
e 525 959
e 525 964
e 526 595
e 526 852
e 527 528
e 529 530
e 529 691
e 530 531
e 530 614
e 530 688
e 530 689
e 530 690
e 531 537
e 531 538
e 531 690
e 531 901
e 532 539
e 532 542
e 533 534
e 533 537
e 533 538
e 533 539
e 533 904
e 534 539
e 535 538
e 535 971
e 536 540
e 536 541
e 536 546
e 537 538
e 537 901
e 537 904
e 538 539
e 538 971
e 540 541
e 540 971
e 541 546
e 541 971
e 542 544
e 543 544
e 543 545
e 543 972
e 545 546
e 545 972
e 546 972
e 547 548
e 547 594
e 547 667
e 547 857
e 548 573
e 548 669
e 548 671
e 548 857
e 549 595
e 549 654
e 550 551
e 552 553
e 552 562
e 553 763
e 554 563
e 555 556
e 555 753
e 555 950
e 556 753
e 556 760
e 557 562
e 557 951
e 558 559
e 558 560
e 558 944
e 559 560
e 559 561
e 559 753
e 559 950
e 560 561
e 561 753
e 564 565
e 564 620
e 565 620
e 566 629
e 568 588
e 568 653
e 568 719
e 568 756
e 569 579
e 569 581
e 569 632
e 570 588
e 570 679
e 570 854
e 571 634
e 571 675
e 571 930
e 571 937
e 572 670
e 572 916
e 572 917
e 573 580
e 573 669
e 573 911
e 574 587
e 574 647
e 574 927
e 575 587
e 575 933
e 576 666
e 576 677
e 576 935
e 577 578
e 577 582
e 577 631
e 577 864
e 578 679
e 579 581
e 579 632
e 579 937
e 580 669
e 580 911
e 581 669
e 581 937
e 582 631
e 583 594
e 583 857
e 583 859
e 583 860
e 584 680
e 584 756
e 584 865
e 585 589
e 585 926
e 585 933
e 586 633
e 586 668
e 586 757
e 587 643
e 587 647
e 588 756
e 589 917
e 590 593
e 590 631
e 590 667
e 590 855
e 590 864
e 591 664
e 591 666
e 591 674
e 591 936
e 591 939
e 591 940
e 592 670
e 592 681
e 592 682
e 592 916
e 593 631
e 593 855
e 594 667
e 594 857
e 594 860
e 595 659
e 596 597
e 596 649
e 598 956
e 598 960
e 598 969
e 599 601
e 599 956
e 599 960
e 599 961
e 599 962
e 599 963
e 599 970
e 600 963
e 600 969
e 600 970
e 601 963
e 601 969
e 602 603
e 602 975
e 602 980
e 602 985
e 602 988
e 603 982
e 603 985
e 603 988
e 604 605
e 604 977
e 604 984
e 604 986
e 604 988
e 605 976
e 605 977
e 605 982
e 605 988
e 606 607
e 606 608
e 606 609
e 606 615
e 607 608
e 607 609
e 607 612
e 608 612
e 608 615
e 609 610
e 609 615
e 609 616
e 610 615
e 611 613
e 614 617
e 614 688
e 618 619
e 618 628
e 618 883
e 619 626
e 619 628
e 620 630
e 621 625
e 621 656
e 621 883
e 622 624
e 622 659
e 623 625
e 623 627
e 623 630
e 623 635
e 623 656
e 624 636
e 626 628
e 626 785
e 627 656
e 627 657
e 628 687
e 629 941
e 630 635
e 631 855
e 632 663
e 632 755
e 632 931
e 632 942
e 633 916
e 634 758
e 634 928
e 634 934
e 634 935
e 635 660
e 638 660
e 638 908
e 639 662
e 639 906
e 639 907
e 639 909
e 639 910
e 640 783
e 640 795
e 640 906
e 640 907
e 640 910
e 641 642
e 641 715
e 641 718
e 643 644
e 643 647
e 644 647
e 645 646
e 648 649
e 649 980
e 651 652
e 651 683
e 653 719
e 653 756
e 653 865
e 655 727
e 655 743
e 655 747
e 655 748
e 655 761
e 655 764
e 655 784
e 656 657
e 656 883
e 658 790
e 658 825
e 660 861
e 660 862
e 660 863
e 661 908
e 663 755
e 663 931
e 664 665
e 664 674
e 664 936
e 664 939
e 665 674
e 665 677
e 666 674
e 666 677
e 666 935
e 666 940
e 667 671
e 667 854
e 667 864
e 668 757
e 668 859
e 668 860
e 669 943
e 670 681
e 670 916
e 670 917
e 671 855
e 671 911
e 672 673
e 672 757
e 672 858
e 672 859
e 673 675
e 673 757
e 673 858
e 675 758
e 675 858
e 675 930
e 676 678
e 676 680
e 676 860
e 678 680
e 678 682
e 681 682
e 681 683
e 681 915
e 682 683
e 683 915
e 684 685
e 688 691
e 689 690
e 692 699
e 692 703
e 692 899
e 692 902
e 693 694
e 693 698
e 693 699
e 693 701
e 693 900
e 694 698
e 694 701
e 694 702
e 694 705
e 695 697
e 695 700
e 695 704
e 695 900
e 695 904
e 696 698
e 696 702
e 696 902
e 697 700
e 697 704
e 697 882
e 697 904
e 698 699
e 698 702
e 699 899
e 699 900
e 699 902
e 700 704
e 701 705
e 701 900
e 702 705
e 702 882
e 703 899
e 704 705
e 704 882
e 704 900
e 705 882
e 705 900
e 706 707
e 706 711
e 707 711
e 707 714
e 707 718
e 708 713
e 708 714
e 709 713
e 709 714
e 710 712
e 711 715
e 711 718
e 713 714
e 715 718
e 716 717
e 719 802
e 719 814
e 719 840
e 720 721
e 720 723
e 720 724
e 720 770
e 720 773
e 720 777
e 720 794
e 721 722
e 721 723
e 721 770
e 722 723
e 722 728
e 722 797
e 722 833
e 722 836
e 723 724
e 723 836
e 724 725
e 724 836
e 724 838
e 725 838
e 725 841
e 725 843
e 726 734
e 727 743
e 727 784
e 727 850
e 728 729
e 728 770
e 728 831
e 728 833
e 729 730
e 729 773
e 730 731
e 730 773
e 730 792
e 731 732
e 731 749
e 731 792
e 731 949
e 732 749
e 732 750
e 732 752
e 732 772
e 732 792
e 733 734
e 735 819
e 735 954
e 736 740
e 736 884
e 736 887
e 736 894
e 737 738
e 737 890
e 738 885
e 738 890
e 739 741
e 739 889
e 739 891
e 739 893
e 739 895
e 740 884
e 740 886
e 740 887
e 741 891
e 741 892
e 741 895
e 742 744
e 742 745
e 742 747
e 742 748
e 742 849
e 743 748
e 743 850
e 744 745
e 744 798
e 744 846
e 745 846
e 745 849
e 745 852
e 746 747
e 746 761
e 746 798
e 746 807
e 747 761
e 747 798
e 748 850
e 749 750
e 749 949
e 750 752
e 750 812
e 750 949
e 751 771
e 751 772
e 751 773
e 751 792
e 751 794
e 752 787
e 752 800
e 752 812
e 755 929
e 755 931
e 755 940
e 755 942
e 757 916
e 758 934
e 759 775
e 761 762
e 761 805
e 761 806
e 761 807
e 762 764
e 762 765
e 762 768
e 762 769
e 764 765
e 764 784
e 765 766
e 765 767
e 765 768
e 765 784
e 766 767
e 767 768
e 768 769
e 769 780
e 769 805
e 770 773
e 771 772
e 771 774
e 771 794
e 772 800
e 773 792
e 773 794
e 774 787
e 774 800
e 775 778
e 775 795
e 776 778
e 777 779
e 777 794
e 779 794
e 779 929
e 780 805
e 780 811
e 782 801
e 782 802
e 783 795
e 783 910
e 785 856
e 785 946
e 786 787
e 786 812
e 786 815
e 787 800
e 787 812
e 788 789
e 788 821
e 788 822
e 789 790
e 789 818
e 789 821
e 790 823
e 790 825
e 791 818
e 793 839
e 796 798
e 796 807
e 796 808
e 796 844
e 797 833
e 797 835
e 797 836
e 797 837
e 799 947
e 801 802
e 802 840
e 802 848
e 803 945
e 803 948
e 804 853
e 805 806
e 805 810
e 805 811
e 806 807
e 806 810
e 807 810
e 808 838
e 808 843
e 808 844
e 809 810
e 809 811
e 809 834
e 809 835
e 809 837
e 810 811
e 811 831
e 811 834
e 812 813
e 812 826
e 812 949
e 813 839
e 814 839
e 814 840
e 815 816
e 817 968
e 819 923
e 819 959
e 819 964
e 820 912
e 820 922
e 821 822
e 821 824
e 822 823
e 822 824
e 823 824
e 823 825
e 824 825
e 826 949
e 827 828
e 827 829
e 827 830
e 827 918
e 827 920
e 827 992
e 827 993
e 828 829
e 829 993
e 831 833
e 831 834
e 832 847
e 832 964
e 832 966
e 833 834
e 834 835
e 835 837
e 836 837
e 837 838
e 838 843
e 840 848
e 841 842
e 841 843
e 842 843
e 843 844
e 845 846
e 846 852
e 847 966
e 849 850
e 849 851
e 849 852
e 850 851
e 856 946
e 858 859
e 858 930
e 859 860
e 861 862
e 861 863
e 866 867
e 866 870
e 866 871
e 867 868
e 867 869
e 867 870
e 867 871
e 868 871
e 868 872
e 869 870
e 869 871
e 870 871
e 872 873
e 872 874
e 873 874
e 873 890
e 875 876
e 875 877
e 875 880
e 875 881
e 876 877
e 876 879
e 876 880
e 876 881
e 877 881
e 884 886
e 884 891
e 884 894
e 885 889
e 885 890
e 885 892
e 886 887
e 886 891
e 886 892
e 887 888
e 887 892
e 888 894
e 889 890
e 889 892
e 889 893
e 889 895
e 890 893
e 891 892
e 891 893
e 892 895
e 896 901
e 896 904
e 897 903
e 898 899
e 898 902
e 898 903
e 899 902
e 901 904
e 901 980
e 902 903
e 905 908
e 906 907
e 907 910
e 909 910
e 912 922
e 913 924
e 913 968
e 914 919
e 914 925
e 916 917
e 918 919
e 918 920
e 918 925
e 919 925
e 920 925
e 921 923
e 926 933
e 927 932
e 927 1000
e 928 935
e 928 942
e 929 940
e 930 943
e 931 942
e 932 938
e 932 941
e 932 994
e 932 995
e 932 1000
e 933 1000
e 934 935
e 936 939
e 936 940
e 937 943
e 938 941
e 938 995
e 941 994
e 944 950
e 945 947
e 945 948
e 947 948
e 951 952
e 951 953
e 952 953
e 952 955
e 953 955
e 956 961
e 956 969
e 958 965
e 959 964
e 960 962
e 960 969
e 961 969
e 962 970
e 963 969
e 963 970
e 969 970
e 969 992
e 973 998
e 973 999
e 974 996
e 975 978
e 975 979
e 975 985
e 976 977
e 976 982
e 976 989
e 977 983
e 977 984
e 977 989
e 978 979
e 979 982
e 979 985
e 979 986
e 979 988
e 980 988
e 981 982
e 981 983
e 981 987
e 981 989
e 981 990
e 982 985
e 982 986
e 982 987
e 982 988
e 982 989
e 983 984
e 983 989
e 983 990
e 984 986
e 984 987
e 984 990
e 986 988
e 987 990
e 992 993
e 995 1000
e 996 998
e 996 999
e 998 999
c k 6
